AES/1_4_4/ssaes_r1-20_c4_rw1_e4_f0_k1-20_aes_1base_box_aes_mc_bidirectional/ExperimentMinisat_r1_k7cnf_2011-11-18-103743/Result
WARNING: for repeatability, setting FPU to use double precision
============================[ Problem Statistics ]=============================
|                                                                             |
|  Number of variables:           120                                         |
|  Number of clauses:             391                                         |
|  Parse time:                   0.00 s                                       |
|  Eliminated clauses:           0.00 Mb                                      |
|  Simplification time:          0.00 s                                       |
|                                                                             |
=============================[ Search Statistics ]==============================
| Conflicts  |          ORIGINAL         |          LEARNT          | Progress |
|            |    Vars  Clauses Literals |    Limit  Clauses Lit/Cl |          |
================================================================================
===============================================================================
restarts              : 1
conflicts             : 0              (0 /sec)
decisions             : 4              (0.00 % random) (2001 /sec)
propagations          : 88             (44022 /sec)
conflict literals     : 0              (-nan % deleted)
Memory used           : 8.00 MB
CPU time              : 0.001999 s

SATISFIABLE
